param N := 3;
param M := 4;
param T := 5;

param CapacityK :=
1 6
2 6
3 7;

param CapacityD :=
1 7
2 7
3 8
4 8;

param Price:  1  2  3  4 :=
			1 50 50 50 50
			2 45 45 45 40
			3 35 35 45 40;

param Cost :=
1 200
2 300
3 300;